Reading model...
...model read.
creating competitive generators file...
...competitive generators recorded.
Loading data...
.. real-time data read.
Compiling instance...
...instance created.
Creating Offer Mitigation (model will solve as dispatch if TRUE)...
...storage offer mitigation file created
Converting model to MPEC...
...converted
NOTE: initial MIP solve with only storage competitive to get feasible solution
Solving...

Welcome to IBM(R) ILOG(R) CPLEX(R) Interactive Optimizer 12.10.0.0
  with Simplex, Mixed Integer & Barrier Optimizers
5725-A06 5725-A29 5724-Y48 5724-Y49 5724-Y54 5724-Y55 5655-Y21
Copyright IBM Corp. 1988, 2019.  All Rights Reserved.

Type 'help' for a list of available commands.
Type 'help' followed by a command name for more
information on commands.

CPLEX> Logfile 'cplex.log' closed.
Logfile 'C:\Users\wenmi\Desktop\competitiveMPEC\logs\tmpgoqk9jkv.cplex.log' open.
CPLEX> New value for parallel optimization mode: -1
CPLEX> New value for mixed integer optimality gap tolerance: 0.05
CPLEX> New value for deterministic time limit in ticks: 100000
CPLEX> Problem 'C:\Users\wenmi\Desktop\competitiveMPEC\logs\tmpz2kud8c6.pyomo.lp' read.
Read time = 0.31 sec. (27.41 ticks)
CPLEX> Problem name         : C:\Users\wenmi\Desktop\competitiveMPEC\logs\tmpz2kud8c6.pyomo.lp
Objective sense      : Maximize
Variables            :  107779  [Nneg: 1,  Box: 44054,  Free: 8928,
                                 Binary: 54796]
Objective nonzeros   :   17522
Linear constraints   :  246995  [Less: 82866,  Greater: 118424,  Equal: 45705]
  Nonzeros           :  580829
  RHS nonzeros       :  134640

Variables            : Min LB: -5000.000        Max UB: 1000000.       
Objective nonzeros   : Min   : 0.01666667       Max   : 2500.000       
Linear constraints   :
  Nonzeros           : Min   : 0.01666667       Max   : 1000000.       
  RHS nonzeros       : Min   : 0.01666667       Max   : 1000000.       
CPLEX> Version identifier: 12.10.0.0 | 2019-11-26 | 843d4de2ae
CPXPARAM_Parallel                                -1
CPXPARAM_DetTimeLimit                            100000
CPXPARAM_MIP_Tolerances_MIPGap                   0.050000000000000003
Tried aggregator 3 times.
MIP Presolve eliminated 181810 rows and 41531 columns.
MIP Presolve added 6048 rows and 0 columns.
MIP Presolve modified 48918 coefficients.
Aggregator did 25786 substitutions.
Reduced MIP has 45447 rows, 38830 columns, and 125995 nonzeros.
Reduced MIP has 15266 binaries, 0 generals, 0 SOSs, and 0 indicators.
Presolve time = 0.33 sec. (327.69 ticks)
Probing fixed 729 vars, tightened 7012 bounds.
Probing time = 0.08 sec. (14.46 ticks)
Tried aggregator 2 times.
Detecting symmetries...
MIP Presolve eliminated 1650 rows and 1458 columns.
MIP Presolve modified 5485 coefficients.
Aggregator did 84 substitutions.
Reduced MIP has 43713 rows, 37288 columns, and 120985 nonzeros.
Reduced MIP has 14537 binaries, 0 generals, 0 SOSs, and 0 indicators.
Presolve time = 0.13 sec. (207.40 ticks)
Probing fixed 0 vars, tightened 338 bounds.
Probing time = 0.16 sec. (19.08 ticks)
Clique table members: 81528.
MIP emphasis: balance optimality and feasibility.
MIP search method: dynamic search.
Parallel mode: opportunistic, using up to 16 threads.
Root relaxation solution time = 0.53 sec. (1706.31 ticks)

        Nodes                                         Cuts/
   Node  Left     Objective  IInf  Best Integer    Best Bound    ItCnt     Gap

      0     0      -55.8898   181                    -55.8898     9393         
*     0     0      integral     0      -55.8898      -55.8898     9393    0.00%
Elapsed time = 1.89 sec. (3106.53 ticks, tree = 0.01 MB, solutions = 1)

Root node processing (before b&c):
  Real time             =    1.91 sec. (3110.33 ticks)
Parallel b&c, 16 threads:
  Real time             =    0.00 sec. (0.00 ticks)
  Sync time (average)   =    0.00 sec.
  Wait time (average)   =    0.00 sec.
                          ------------
Total (root+branch&cut) =    1.91 sec. (3110.33 ticks)

Solution pool: 1 solution saved.

MIP - Integer optimal solution:  Objective = -5.5889770586e+01
Solution time =    1.92 sec.  Iterations = 9393  Nodes = 0
Deterministic time = 3110.64 ticks  (1618.44 ticks/sec)

CPLEX> Incumbent solution written to file 'C:\Users\wenmi\Desktop\competitiveMPEC\logs\tmpk0s5_fa9.cplex.sol'.
CPLEX> NOTE: no warmstart specified for MIP iteration, default behavior is true
NOTE: resolving with all competitive generators using storage-only solution to warmstart
Solving...

Welcome to IBM(R) ILOG(R) CPLEX(R) Interactive Optimizer 12.10.0.0
  with Simplex, Mixed Integer & Barrier Optimizers
5725-A06 5725-A29 5724-Y48 5724-Y49 5724-Y54 5724-Y55 5655-Y21
Copyright IBM Corp. 1988, 2019.  All Rights Reserved.

Type 'help' for a list of available commands.
Type 'help' followed by a command name for more
information on commands.

CPLEX> Logfile 'cplex.log' closed.
Logfile 'C:\Users\wenmi\Desktop\competitiveMPEC\logs\tmp4o9p94m5.cplex.log' open.
CPLEX> New value for parallel optimization mode: -1
CPLEX> New value for mixed integer optimality gap tolerance: 0.05
CPLEX> New value for deterministic time limit in ticks: 100000
CPLEX> Problem 'C:\Users\wenmi\Desktop\competitiveMPEC\logs\tmp_v31fprr.pyomo.lp' read.
Read time = 0.31 sec. (27.45 ticks)
CPLEX> MIP start file 'C:\Users\wenmi\Desktop\competitiveMPEC\logs\tmpc66fngfp.cplex.mst' read.
CPLEX> Problem name         : C:\Users\wenmi\Desktop\competitiveMPEC\logs\tmp_v31fprr.pyomo.lp
Objective sense      : Maximize
Variables            :  109219  [Nneg: 1,  Box: 45494,  Free: 8928,
                                 Binary: 54796]
Objective nonzeros   :   18914
Linear constraints   :  246995  [Less: 82866,  Greater: 118424,  Equal: 45705]
  Nonzeros           :  580829
  RHS nonzeros       :  134640

Variables            : Min LB: -5000.000        Max UB: 1000000.       
Objective nonzeros   : Min   : 0.01666667       Max   : 2500.000       
Linear constraints   :
  Nonzeros           : Min   : 0.01666667       Max   : 1000000.       
  RHS nonzeros       : Min   : 0.01666667       Max   : 1000000.       
CPLEX> Version identifier: 12.10.0.0 | 2019-11-26 | 843d4de2ae
CPXPARAM_Parallel                                -1
CPXPARAM_DetTimeLimit                            100000
CPXPARAM_MIP_Tolerances_MIPGap                   0.050000000000000003
1 of 1 MIP starts provided solutions.
MIP start 'm1' defined initial solution with objective -55.8898.
Tried aggregator 3 times.
MIP Presolve eliminated 181810 rows and 42971 columns.
MIP Presolve added 6048 rows and 0 columns.
MIP Presolve modified 48918 coefficients.
Aggregator did 25786 substitutions.
Reduced MIP has 45447 rows, 38830 columns, and 125995 nonzeros.
Reduced MIP has 15266 binaries, 0 generals, 0 SOSs, and 0 indicators.
Presolve time = 0.36 sec. (328.40 ticks)
Probing fixed 729 vars, tightened 7012 bounds.
Probing time = 0.08 sec. (14.46 ticks)
Tried aggregator 2 times.
Detecting symmetries...
MIP Presolve eliminated 1650 rows and 1458 columns.
MIP Presolve modified 5485 coefficients.
Aggregator did 84 substitutions.
Reduced MIP has 43713 rows, 37288 columns, and 120985 nonzeros.
Reduced MIP has 14537 binaries, 0 generals, 0 SOSs, and 0 indicators.
Presolve time = 0.13 sec. (207.41 ticks)
Probing fixed 0 vars, tightened 328 bounds.
Probing time = 0.14 sec. (15.38 ticks)
Clique table members: 81487.
MIP emphasis: balance optimality and feasibility.
MIP search method: dynamic search.
Parallel mode: opportunistic, using up to 16 threads.
Root relaxation solution time = 0.66 sec. (1741.13 ticks)

        Nodes                                         Cuts/
   Node  Left     Objective  IInf  Best Integer    Best Bound    ItCnt     Gap

*     0+    0                          -55.8898   1.37524e+07              --- 
      0     0    40772.2719   418      -55.8898    40772.2719    12237     --- 
      0     0    40343.6124   418      -55.8898     Cuts: 634    12969     --- 
      0     0    40096.3984   418      -55.8898     Cuts: 322    13537     --- 
      0     0    40073.4807   418      -55.8898     Cuts: 128    13686     --- 
      0     0    40054.4450   418      -55.8898     Cuts: 223    13905     --- 
      0     0    40048.9737   418      -55.8898  Flowcuts: 13    13939     --- 
      0     0    40048.9737   418      -55.8898   Flowcuts: 4    13946     --- 
      0     2    40048.9737   455      -55.8898    40048.9737    13946     --- 
Elapsed time = 5.28 sec. (5575.30 ticks, tree = 0.02 MB, solutions = 1)
    110    40        cutoff            -55.8898    39872.6363    15724     --- 
    210    60    33102.7263   335      -55.8898    39872.6363    16319     --- 
    345   183    32064.2189   315      -55.8898    39872.6363    24067     --- 
    472   144    30600.1079   316      -55.8898    39872.6363    22383     --- 
    591   261    32802.3920   353      -55.8898    39872.6363    26042     --- 
    725   301    29438.2611   290      -55.8898    39872.6363    26865     --- 
    863   528    24340.5059   247      -55.8898    39872.6363    30794     --- 
   1022   466    30385.5001   288      -55.8898    39872.6363    29532     --- 
   1166   714    24945.6245   239      -55.8898    39872.6363    34350     --- 
   1787  1026    24551.4711   186      -55.8898    39872.6363    39464     --- 
Elapsed time = 20.91 sec. (8701.38 ticks, tree = 13.39 MB, solutions = 1)
   2328  1651    21464.1561   164      -55.8898    39872.6363    51490     --- 
   2894  2395    17236.8924   152      -55.8898    39872.6363    68246     --- 
   3531  2122    12549.9471    88      -55.8898    39872.6363    62215     --- 
   4243  2706     5838.7939    90      -55.8898    39872.6363    74004     --- 
   4796  3375      619.2095    81      -55.8898    39694.6388    83960     --- 

Performing restart 1

Repeating presolve.
Tried aggregator 3 times.
MIP Presolve eliminated 1524 rows and 1380 columns.
MIP Presolve modified 36390 coefficients.
Aggregator did 402 substitutions.
Reduced MIP has 41787 rows, 35506 columns, and 114417 nonzeros.
Reduced MIP has 13943 binaries, 0 generals, 0 SOSs, and 0 indicators.
Presolve time = 0.13 sec. (132.63 ticks)
Tried aggregator 1 time.
MIP Presolve eliminated 908 rows and 764 columns.
MIP Presolve modified 16105 coefficients.
Reduced MIP has 40879 rows, 34742 columns, and 111831 nonzeros.
Reduced MIP has 13561 binaries, 0 generals, 0 SOSs, and 0 indicators.
Presolve time = 0.05 sec. (51.18 ticks)
Tried aggregator 1 time.
MIP Presolve eliminated 2 rows and 2 columns.
MIP Presolve modified 12717 coefficients.
Reduced MIP has 40877 rows, 34740 columns, and 111825 nonzeros.
Reduced MIP has 13560 binaries, 0 generals, 0 SOSs, and 0 indicators.
Presolve time = 0.11 sec. (114.13 ticks)
Represolve time = 0.89 sec. (494.52 ticks)
   4931     0    34926.6594   705      -55.8898     Cuts: 538   118074     --- 
   4931     0    34924.1657   705      -55.8898     Cuts: 354   118288     --- 
   4931     0    34920.3253   705      -55.8898     Cuts: 167   118445     --- 
   4931     0    34915.2618   705      -55.8898      Cuts: 91   118549     --- 
   4931     0    34914.8824   705      -55.8898      Cuts: 86   118625     --- 
   4931     0    34914.8824   705      -55.8898      Cuts: 80   118695     --- 
   4931     0    34911.5887   705      -55.8898      Cuts: 52   118754     --- 
   4931     0    34911.5887   705      -55.8898      Cuts: 31   118780     --- 
   4931     0    34911.5885   705      -55.8898      Cuts: 27   118814     --- 
   4931     0    34911.5882   705      -55.8898      Cuts: 41   118855     --- 
   4931     0    34908.0665   705      -55.8898     Cuts: 131   118956     --- 
   4931     0    34907.8656   705      -55.8898      Cuts: 60   119001     --- 
   4931     0    33212.5087   705      -55.8898      Cuts: 47   119079     --- 
   4931     0    33212.2894   705      -55.8898      Cuts: 35   119109     --- 
   4931     0    33212.2686   705      -55.8898      Cuts: 48   119131     --- 
   4931     1        cutoff            -55.8898    31535.8629   119217     --- 
   5002     8    23703.2293   514      -55.8898    24070.8926   120088     --- 
   5099    51    16591.8625   408      -55.8898    24070.8926   122304     --- 
   5198    47    11254.8867   443      -55.8898    24070.8926   122092     --- 
   5281    48    12462.3294   537      -55.8898    24070.8926   122292     --- 
Elapsed time = 80.08 sec. (30694.49 ticks, tree = 0.22 MB, solutions = 1)
   5379    62     5456.6081   497      -55.8898    24070.8926   122690     --- 
   5473     2    11589.8061   619      -55.8898    24004.1146   119445     --- 
   5588   135     3145.6355   515      -55.8898    24004.1146   125856     --- 
   5721   361     9773.8591   432      -55.8898    24004.1146   135963     --- 
   6039   195    10247.7546   448      -55.8898    23993.0107   128260     --- 
   6409   303     2747.6052   505      -55.8898    23993.0107   132740     --- 
   6738   326    10276.4338   343      -55.8898    23993.0107   133692     --- 
   7118   564     7922.1290   484      -55.8898    23415.7207   144482     --- 
   7599   555    12980.8867   372      -55.8898    23415.7207   143803     --- 
   8088   589    13027.6715   474      -55.8898    23415.7207   144880     --- 
Elapsed time = 128.84 sec. (40259.57 ticks, tree = 5.52 MB, solutions = 1)
   8585   576    14660.0007   412      -55.8898    23415.7207   144379     --- 
   9186   434     1346.5211   543      -55.8898    23155.7529   139081     --- 
   9866   940      137.8765   581      -55.8898    22323.5474   157989     --- 
  10484  1385     1738.8839   516      -55.8898    22323.5474   175474     --- 
  11095  1415        cutoff            -55.8898    22323.5474   176709     --- 
  11720  1272      279.3894   498      -55.8898    22035.0243   171008     --- 
  12323  1305    16676.3001   463      -55.8898    21639.6741   172180     --- 
  12920  3443    16211.7214   509      -55.8898    21639.6741   252178     --- 
  13508  3042    13145.6483   407      -55.8898    21409.0817   237629     --- 
  14092  5923    16038.4829   481      -55.8898    20835.3169   343472     --- 
Elapsed time = 179.47 sec. (49808.57 ticks, tree = 75.29 MB, solutions = 1)
  14676  4524    10653.4241   381      -55.8898    20455.2650   292435     --- 
  15242  6527     1844.9253   494      -55.8898    20329.3691   365398     --- 
  15764  5169     3171.4607   502      -55.8898    20329.3691   315600     --- 
  16377  5475     9736.5583   445      -55.8898    20329.3691   327816     --- 
  16885  5716    13017.8558   439      -55.8898    20105.6009   336759     --- 
  17396  7020     1590.5192   475      -55.8898    19864.4896   384892     --- 
  17893  6403     4646.8967   370      -55.8898    19864.4896   361125     --- 
  18326  5512        cutoff            -55.8898    19414.7117   328543     --- 
  18686  5836    11693.8013   462      -55.8898    19414.7117   341440     --- 
  19040  6238     7333.3229   466      -55.8898    19344.1702   354587     --- 
Elapsed time = 232.36 sec. (59367.23 ticks, tree = 80.09 MB, solutions = 1)
  19350  7678    13405.1664   445      -55.8898    19033.6662   410318     --- 
  19571  9822     1340.9339   431      -55.8898    19033.6662   495077     --- 
  19878  8769     3754.0378   475      -55.8898    18866.3521   452782     --- 
  20195  8353     2697.4285   416      -55.8898    18866.3521   436038     --- 
  20504 10599     9622.5109   501      -55.8898    18866.3521   524905     --- 
  20805  9395     6181.4251   435      -55.8898    18794.4705   477692     --- 
  21125 10643    12692.1104   472      -55.8898    18794.4705   526943     --- 
  21522 11767     4667.6464   480      -55.8898    18601.7687   572663     --- 
  21980 11359     5902.7540   517      -55.8898    18601.7687   555933     --- 
  22465 11625    16146.6623   492      -55.8898    18601.7687   566215     --- 
Elapsed time = 281.86 sec. (68932.34 ticks, tree = 152.81 MB, solutions = 1)
  22909 11392      454.5557   467      -55.8898    18601.7687   556699     --- 
  23441 11372      169.1540   492      -55.8898    18601.7687   556143     --- 
  23961 11429    13819.1599   500      -55.8898    18538.2051   558369     --- 
  24429 12056        cutoff            -55.8898    18460.3888   584824     --- 
  24989 11737     8996.7802   532      -55.8898    18314.2764   570915     --- 
  25618 12438     1666.6695   309      -55.8898    18314.2764   599971     --- 
  26230 12258    14289.3348   458      -55.8898    18314.2764   592489     --- 
  26815 12611    10864.4590   477      -55.8898    18155.2493   607488     --- 
  27444 12310      799.2316   471      -55.8898    18155.2493   594393     --- 
  28081 12346    10646.5484   431      -55.8898    17895.6745   595702     --- 
Elapsed time = 328.05 sec. (78484.28 ticks, tree = 162.39 MB, solutions = 1)
  28708 12382     3359.7017   428      -55.8898    17895.6745   597031     --- 
  29256 14340     9725.2854   272      -55.8898    17895.6745   678443     --- 
  29806 13856     3507.6702   524      -55.8898    17895.6745   658625     --- 
  30339 13695     8012.7040   437      -55.8898    17895.6745   652023     --- 
  30867 16071    12225.7484   437      -55.8898    17895.6745   748187     --- 
  31418 17184    10403.3680   392      -55.8898    17851.1018   794692     --- 
  31915 13968        cutoff            -55.8898    17814.4439   663004     --- 
  32457 14832    13652.2971   486      -55.8898    17814.4439   698387     --- 
  32927 17134    16614.8847   482      -55.8898    17814.4439   792669     --- 
  33340 16585    13864.3748   466      -55.8898    17814.4439   769950     --- 
Elapsed time = 370.30 sec. (88041.37 ticks, tree = 218.41 MB, solutions = 1)
  33712 18641     8214.3376   517      -55.8898    17814.4439   853423     --- 
  34084 17737    10164.0312   470      -55.8898    17814.4439   817118     --- 
  34416 17761     7892.4553   556      -55.8898    17814.4439   818062     --- 
  34807 17988    14906.4132   478      -55.8898    17814.4439   827194     --- 
  35128 19233    15205.8998   539      -55.8898    17814.4439   877056     --- 
  35456 19267     7925.3546   531      -55.8898    17814.4439   878423     --- 
  35773 18080     5063.9042   513      -55.8898    17814.4439   830592     --- 
  36110 18352     6324.2520   542      -55.8898    17814.4439   841957     --- 
  36422 18840    14793.5767   472      -55.8898    17814.4439   861847     --- 
  36704 18409     1140.3147   441      -55.8898    17814.4439   844296     --- 
Elapsed time = 380.92 sec. (97598.34 ticks, tree = 243.36 MB, solutions = 1)
  36917 18413     8344.3707   411      -55.8898    17814.4439   844082     --- 
  37068 19254     7022.4554   465      -55.8898    17814.4439   877591     --- 

GUB cover cuts applied:  8
Clique cuts applied:  1
Cover cuts applied:  29
Implied bound cuts applied:  58
Flow cuts applied:  558
Mixed integer rounding cuts applied:  74
Lift and project cuts applied:  12
Gomory fractional cuts applied:  6

Root node processing (before b&c):
  Real time             =    4.14 sec. (5442.74 ticks)
Parallel b&c, 16 threads:
  Real time             =  377.91 sec. (94564.24 ticks)
  Sync time (average)   =    4.84 sec.
  Wait time (average)   =    0.05 sec.
                          ------------
Total (root+branch&cut) =  382.05 sec. (100006.98 ticks)

Solution pool: 1 solution saved.

MIP - Deterministic time limit exceeded, integer feasible:  Objective = -5.5889770588e+01
Current MIP best bound =  1.7274062442e+04 (gap = 17330, 3.1e+04%)
Solution time =  382.06 sec.  Iterations = 1057597  Nodes = 37079 (23728)
Deterministic time = 100007.29 ticks  (261.76 ticks/sec)

CPLEX> Incumbent solution written to file 'C:\Users\wenmi\Desktop\competitiveMPEC\logs\tmpuerz1tjs.cplex.sol'.
CPLEX> Exporting results... 
